NAME : E048-04y.40001353.tour
COMMENT : Length = 40001353
COMMENT : Found by LKH [Keld Helsgaun] Tue May  8 13:50:37 2018
TYPE : TOUR
DIMENSION : 51
TOUR_SECTION
1
4
40
16
33
46
44
31
38
10
9
2
23
17
41
34
51
39
32
25
11
45
35
5
26
42
3
29
6
48
50
22
47
21
30
43
18
27
20
37
7
28
8
19
36
13
49
14
12
24
15
-1
EOF
